sing20211203.12
TTAA  53111 48698
99010 24414 02013 00123 27256 33512 92811 22043 33525
85541 18032 31019 70181 09432 27021 50590 05722 15014
40762 15150 10533 30973 29530 07033 25101 39741 06531
20250 52945 07547 15428 68156 07060 10665 76560 20519
88123 77157 08574
77138 08074 42040=
TTCC  53117 48698
70871 71562 10510
88919 79159 20016
77999=
TTDD  5311/ 48698
11919 79159 22736 75959 33688 71761
21212 11931 21016 22868 15006 33827 23004 44800 25502 55793
31002 66787 34004 77771 01506 88727 05014 99688 13010=
